N = 9;
H = 6;
T = 2;

avail = array3d(1..N, 1..H, 1..T, [10, 0, 7, 8, 0, 3, 3, 9, 6, 3, 10, 2, 0, 8, 5, 9, 8, 7, 10, 2, 4, 8, 8, 9, 2, 2, 9, 2, 8, 8, 6, 9, 1, 0, 3, 0, 1, 2, 6, 4, 8, 4, 6, 2, 0, 4, 7, 6, 10, 4, 10, 0, 3, 7, 9, 5, 10, 10, 0, 6, 0, 10, 10, 6, 6, 3, 8, 10, 8, 10, 5, 8, 0, 3, 5, 7, 4, 9, 3, 6, 1, 6, 4, 10, 10, 5, 7, 10, 9, 0, 0, 7, 10, 6, 2, 6, 2, 4, 8, 4, 0, 10, 10, 4, 2, 9, 0, 4]);

r = array2d(1..H, 1..T, [1, 1, 2, 2, 3, 1, 2, 3, 3, 3, 1, 0]);
